c preprocessed version of BN_93, 39 vertices, 402 edges
p td 39 402
0 1
0 23
12 0
1 2
1 23
2 3
8 2
11 2
20 2
4 3
8 3
5 3
10 3
11 3
20 3
5 4
14 4
10 4
11 4
19 4
6 5
5 14
10 5
17 5
19 5
21 5
7 6
9 6
17 6
12 6
21 6
7 8
10 7
7 11
7 9
17 7
12 7
9 8
11 8
12 8
20 8
10 9
9 11
17 9
12 9
11 10
12 11
19 11
21 11
20 11
12 13
17 12
12 18
12 19
12 16
12 21
12 20
12 22
13 14
13 15
16 13
21 13
22 13
14 15
16 14
20 14
16 15
20 15
17 16
19 16
16 22
16 21
16 18
16 20
17 18
17 19
17 21
17 20
17 22
19 18
21 18
22 18
20 18
19 20
19 21
19 22
21 20
22 20
21 22
24 3
24 4
24 5
24 6
24 35
24 26
24 7
24 9
24 10
24 11
24 25
24 38
24 30
24 32
24 28
24 29
24 14
24 15
24 13
24 33
24 36
24 17
24 12
24 19
24 16
24 21
24 27
24 31
24 22
24 20
24 34
24 37
25 38
25 3
25 4
25 5
25 6
25 35
25 26
25 7
25 9
25 10
25 11
25 32
25 14
25 15
25 28
25 29
25 13
25 30
25 33
25 36
25 17
25 12
25 19
25 16
25 21
25 27
25 31
25 22
25 20
25 34
25 37
25 18
26 38
26 6
26 35
26 7
26 9
26 10
26 32
26 28
26 29
26 30
26 33
26 36
26 17
26 12
26 27
26 31
26 22
26 20
26 34
26 37
26 18
27 38
27 17
27 12
27 19
27 16
27 21
27 4
27 35
27 31
27 18
27 32
27 28
27 29
27 30
27 33
27 20
27 34
27 36
27 37
27 22
28 38
28 1
28 3
28 4
28 5
28 6
28 35
28 7
28 9
28 10
28 11
28 30
28 32
28 29
28 13
28 33
28 36
28 17
28 12
28 19
28 16
28 21
28 31
28 22
28 20
28 34
28 37
28 18
29 38
29 6
29 35
29 7
29 9
29 10
29 11
29 30
29 32
29 14
29 15
29 13
29 33
29 36
29 17
29 12
29 16
29 21
29 31
29 22
29 20
29 34
29 37
29 18
30 38
30 2
30 3
30 4
30 5
30 35
30 7
30 8
30 9
30 10
30 11
30 23
30 32
30 14
30 15
30 13
30 33
30 36
30 12
30 19
30 16
30 21
30 31
30 22
30 20
30 34
30 37
31 38
31 17
31 12
31 19
31 16
31 21
31 0
31 4
31 35
31 7
31 9
31 11
31 23
31 18
31 32
31 33
31 20
31 34
31 36
31 37
31 22
32 38
32 35
32 7
32 9
32 33
32 36
32 17
32 21
32 22
32 20
32 34
32 37
32 18
33 38
33 5
33 6
33 35
33 7
33 9
33 10
33 11
33 13
33 36
33 12
33 19
33 16
33 21
33 22
33 20
33 34
33 37
34 38
34 17
34 12
34 19
34 16
34 21
34 22
34 20
34 18
34 0
34 35
34 37
34 13
34 36
35 38
35 0
35 1
35 6
35 23
35 7
35 10
35 9
35 36
35 17
35 12
35 22
35 20
35 37
35 18
36 38
36 2
36 3
36 5
36 6
36 7
36 8
36 9
36 11
36 13
36 17
36 12
36 19
36 16
36 21
36 22
36 20
36 37
36 18
37 38
37 17
37 12
37 19
37 16
37 21
37 22
37 20
37 18
37 3
37 7
37 4
37 14
37 15
37 9
38 0
38 1
38 2
38 5
38 6
38 10
38 23
38 13
38 17
38 16
38 21
38 22
38 20
38 18
